p edge 64 512
e 1 12
e 1 45
e 1 46
e 1 6
e 1 56
e 1 17
e 1 29
e 1 11
e 2 25
e 2 21
e 2 41
e 2 20
e 2 37
e 2 12
e 2 50
e 2 45
e 2 14
e 2 39
e 2 6
e 2 35
e 2 56
e 2 34
e 3 64
e 3 60
e 3 23
e 3 12
e 3 48
e 3 20
e 3 7
e 3 53
e 3 63
e 3 22
e 3 9
e 3 25
e 3 33
e 3 55
e 3 36
e 3 11
e 3 35
e 3 46
e 4 13
e 4 28
e 4 6
e 4 41
e 4 64
e 4 62
e 4 61
e 4 34
e 4 24
e 4 29
e 4 21
e 4 11
e 4 58
e 4 57
e 4 20
e 5 7
e 5 15
e 5 10
e 5 8
e 5 23
e 5 39
e 5 21
e 5 64
e 5 27
e 5 32
e 5 29
e 5 35
e 5 16
e 5 20
e 5 54
e 5 48
e 5 51
e 6 7
e 6 26
e 6 38
e 6 55
e 6 61
e 6 39
e 6 41
e 6 54
e 6 17
e 6 49
e 6 59
e 6 51
e 7 43
e 7 38
e 7 16
e 7 46
e 7 11
e 7 57
e 7 42
e 7 17
e 7 61
e 7 14
e 7 15
e 7 8
e 7 45
e 7 20
e 7 49
e 7 9
e 8 35
e 8 19
e 8 58
e 8 57
e 8 25
e 8 36
e 8 52
e 8 18
e 8 33
e 8 31
e 8 37
e 8 20
e 8 53
e 8 60
e 8 14
e 9 54
e 9 28
e 9 31
e 9 41
e 9 47
e 9 43
e 9 39
e 9 57
e 9 16
e 10 57
e 10 45
e 10 39
e 10 16
e 10 19
e 10 41
e 10 12
e 10 17
e 10 49
e 11 44
e 11 18
e 11 39
e 11 50
e 11 36
e 11 33
e 11 52
e 11 41
e 11 22
e 12 56
e 12 45
e 12 54
e 12 29
e 12 17
e 12 46
e 12 34
e 12 32
e 12 21
e 12 62
e 12 28
e 12 35
e 12 40
e 12 27
e 12 18
e 13 41
e 13 21
e 13 17
e 13 30
e 13 63
e 13 60
e 13 62
e 13 31
e 13 57
e 13 38
e 13 43
e 13 14
e 13 42
e 13 22
e 13 52
e 13 64
e 13 35
e 13 19
e 14 58
e 14 61
e 14 21
e 14 38
e 14 47
e 14 46
e 14 63
e 14 32
e 14 54
e 14 18
e 14 43
e 14 15
e 14 28
e 14 33
e 14 40
e 15 39
e 15 37
e 15 53
e 15 50
e 15 31
e 15 33
e 15 42
e 15 46
e 15 30
e 15 55
e 15 23
e 15 47
e 15 35
e 16 22
e 16 54
e 16 19
e 16 37
e 16 49
e 16 39
e 16 40
e 16 60
e 16 31
e 16 18
e 16 47
e 16 51
e 16 58
e 16 28
e 17 27
e 17 63
e 17 40
e 17 28
e 17 55
e 17 58
e 17 59
e 17 44
e 17 49
e 17 38
e 17 24
e 17 61
e 18 43
e 18 28
e 18 30
e 18 37
e 18 23
e 18 57
e 18 20
e 18 52
e 18 42
e 18 56
e 18 35
e 19 64
e 19 35
e 19 48
e 19 37
e 19 38
e 19 58
e 19 47
e 19 43
e 19 49
e 19 59
e 19 51
e 19 30
e 19 60
e 20 40
e 20 50
e 20 36
e 20 63
e 20 47
e 20 24
e 20 51
e 20 43
e 20 48
e 20 59
e 20 45
e 21 47
e 21 29
e 21 41
e 21 33
e 21 46
e 21 28
e 21 38
e 21 44
e 21 55
e 21 34
e 21 40
e 21 57
e 21 35
e 22 23
e 22 40
e 22 60
e 22 29
e 22 53
e 22 48
e 22 24
e 22 46
e 23 41
e 23 26
e 23 28
e 23 61
e 23 37
e 23 53
e 23 52
e 23 27
e 23 57
e 23 36
e 23 58
e 23 42
e 24 43
e 24 35
e 24 39
e 24 26
e 24 42
e 24 28
e 24 47
e 24 29
e 24 34
e 24 30
e 24 52
e 25 48
e 25 52
e 25 26
e 25 49
e 25 35
e 25 45
e 25 54
e 25 43
e 25 37
e 25 28
e 25 38
e 25 29
e 25 51
e 25 63
e 26 57
e 26 32
e 26 54
e 26 36
e 26 52
e 26 31
e 26 37
e 26 60
e 26 34
e 26 49
e 26 58
e 26 45
e 27 60
e 27 42
e 27 37
e 27 47
e 27 28
e 27 43
e 27 46
e 27 29
e 28 31
e 28 60
e 28 33
e 28 50
e 28 52
e 28 55
e 28 46
e 28 64
e 29 43
e 29 32
e 29 47
e 29 51
e 29 31
e 29 33
e 29 49
e 29 53
e 30 60
e 30 37
e 30 33
e 30 31
e 30 46
e 30 45
e 30 38
e 30 32
e 30 54
e 31 63
e 31 55
e 31 34
e 31 42
e 31 60
e 31 49
e 31 48
e 31 35
e 31 57
e 31 62
e 32 38
e 32 35
e 32 45
e 32 34
e 32 39
e 32 60
e 32 37
e 32 58
e 32 50
e 32 63
e 32 42
e 32 47
e 33 62
e 33 63
e 33 57
e 33 34
e 33 56
e 33 41
e 33 58
e 33 39
e 33 35
e 34 45
e 34 58
e 34 37
e 34 55
e 34 53
e 34 63
e 34 62
e 34 59
e 34 39
e 34 60
e 34 48
e 35 40
e 35 61
e 35 45
e 35 57
e 35 50
e 35 63
e 35 48
e 35 39
e 35 42
e 36 62
e 36 64
e 36 56
e 36 41
e 36 60
e 36 51
e 36 55
e 36 39
e 37 40
e 37 38
e 37 53
e 37 52
e 37 60
e 37 39
e 37 62
e 37 61
e 37 43
e 37 56
e 38 45
e 38 39
e 38 58
e 38 48
e 38 46
e 38 42
e 38 63
e 39 45
e 39 47
e 39 57
e 39 48
e 40 48
e 40 59
e 40 63
e 40 57
e 40 52
e 40 60
e 41 49
e 41 63
e 41 44
e 41 55
e 41 62
e 41 52
e 41 50
e 41 57
e 42 56
e 42 62
e 42 53
e 42 57
e 43 49
e 43 45
e 44 46
e 44 56
e 44 57
e 44 58
e 45 56
e 45 48
e 45 63
e 45 52
e 46 51
e 46 55
e 46 60
e 46 52
e 46 53
e 47 57
e 47 56
e 48 61
e 48 55
e 48 60
e 49 55
e 49 62
e 50 55
e 50 62
e 50 59
e 51 57
e 51 63
e 51 62
e 51 58
e 52 58
e 53 55
e 54 61
e 54 62
e 55 56
e 55 62
e 56 58
e 56 61
e 57 60
e 57 62
e 58 63
e 58 61
e 58 64
e 59 64
e 59 60
e 59 61
e 62 63
e 63 64
